<number of tasks>
50

<cycle time>
1000

<order strength>
0.601


<task times>
1 374
2 161
3 201
4 108
5 182
6 112
7 124
8 109
9 113
10 143
11 22
12 48
13 65
14 87
15 224
16 72
17 76
18 211
19 114
20 65
21 170
22 59
23 129
24 165
25 24
26 104
27 93
28 357
29 146
30 244
31 197
32 173
33 116
34 95
35 286
36 145
37 154
38 156
39 146
40 181
41 33
42 165
43 265
44 185
45 260
46 145
47 75
48 26
49 278
50 145

<precedence relations>
1,11
1,22
1,27
2,9
3,7
3,8
4,8
5,10
5,21
6,7
6,13
6,14
7,12
7,16
7,17
8,12
8,13
8,14
9,14
9,24
10,20
10,22
10,33
11,29
12,15
12,29
13,16
13,17
13,18
14,15
15,19
15,26
16,19
16,20
16,21
16,22
17,19
17,20
17,23
18,19
18,21
18,26
19,28
19,32
20,24
20,25
20,29
20,31
21,24
22,24
22,25
22,26
22,37
23,26
23,27
24,34
25,38
26,31
26,46
27,36
27,37
28,33
28,40
29,30
29,32
31,36
32,35
32,37
32,38
32,39
33,36
34,35
34,38
35,42
35,47
36,50
37,41
37,43
37,46
38,40
38,42
39,41
40,44
40,46
41,45
43,47
44,50
45,49
47,48

<end>
